# Solution for model Master Problem
# Objective value = 7.6146098793782312e+02
theta[1] 0
theta[2] 0.5
theta[3] 0.5
theta[4] 0
theta[5] 0
theta[6] 1
theta[7] 0
theta[8] 1
theta[9] 0.5
theta[10] 0
theta[11] 0
theta[12] 0.5
theta[13] 1
theta[14] 0
theta[15] 0
theta[16] 1
theta[17] 1
theta[18] 1
theta[19] 0
theta[20] 0
theta[21] 1
theta[22] 0
theta[23] 1
theta[24] 0
theta[25] 0
theta[26] 0
theta[27] 0.5
theta[28] 0
theta[29] 1
theta[30] 0.5
theta[31] 0
theta[32] 0
theta[33] 0
theta[34] 0.5
theta[35] 0
